min: 873 x1 + 101 x2 + 386 x3 + 197 x4 + 323 x5 + 992 x6 + 915 x7 + 148 x8 + 829 x9 + 338 x10 + 728 x11 + 843 x12 + 79 x13 + 766 x14 + 652 x15 + 690 x16 + 987 x17 + 230 x18 + 699 x19 + 681 x20;

r1: x19 + x16 + x5 + x13 + x12 + x11 + x15 >= 1;
r2: x6 + x20 + x5 + x1 + x2 >= 1;
r3: x3 + x20 + x10 + x8 >= 1;
r4: x18 + x7 >= 1;
r5: x9 + x2 + x5 + x3 >= 1;
r6: x19 + x17 + x20 >= 1;
r7: x19 + x1 + x8 + x2 + x11 >= 1;
r8: x13 + x12 + x10 + x16 + x1 + x15 + x6 >= 1;
r9: x7 + x14 + x13 + x5 + x6 + x12 + x16 >= 1;
r10: x4 + x5 + x13 + x9 + x11 + x18 >= 1;
r11: x8 + x1 + x12 + x9 + x3 >= 1;
r12: x3 + x16 + x12 + x14 + x2 + x4 + x18 + x11 >= 1;
r13: x3 + x4 >= 1;
r14: x9 + x20 >= 1;
r15: x11 >= 1;
r16: x20 + x9 + x16 + x3 + x8 + x5 + x7 >= 1;
r17: x13 + x14 + x4 + x12 + x7 + x19 >= 1;
r18: x12 + x4 + x8 + x3 >= 1;
r19: x18 + x12 + x4 + x20 + x11 + x15 >= 1;
r20: x3 + x8 + x13 + x15 + x12 + x1 + x14 + x19 >= 1;
r21: x20 + x4 + x1 + x3 + x2 + x15 + x5 + x10 >= 1;
r22: x8 + x14 + x19 + x5 + x9 + x10 >= 1;
r23: x18 + x10 + x2 + x14 >= 1;
r24: x2 + x6 + x13 >= 1;
r25: x20 + x13 >= 1;
r26: x13 + x1 + x8 + x11 + x10 + x6 >= 1;
r27: x19 + x20 + x15 + x10 >= 1;
r28: x15 + x10 + x13 + x9 + x7 + x14 >= 1;
r29: x12 + x6 >= 1;
r30: x12 + x3 + x6 + x2 >= 1;
r31: x6 + x19 + x4 + x16 + x5 >= 1;
r32: x2 + x4 + x11 + x9 + x3 + x12 >= 1;
r33: x7 + x11 >= 1;
r34: x2 + x8 + x1 + x17 >= 1;
r35: x2 + x15 + x1 + x5 >= 1;
r36: x18 + x8 >= 1;
r37: x14 + x18 >= 1;
r38: x20 >= 1;
r39: x4 + x16 + x5 + x11 >= 1;
r40: x3 + x9 + x8 + x1 + x11 + x16 >= 1;
r41: x10 + x14 + x19 + x8 + x2 + x18 >= 1;
r42: x10 + x12 + x15 + x13 >= 1;
r43: x9 + x2 >= 1;
r44: x2 + x13 + x20 + x10 + x5 >= 1;
r45: x15 + x6 >= 1;
r46: x10 + x4 >= 1;
r47: x6 + x9 + x4 + x1 + x2 + x12 + x3 + x7 >= 1;
r48: x8 + x20 >= 1;
r49: x15 + x6 >= 1;
r50: x7 + x1 + x3 + x20 >= 1;
r51: x9 + x1 + x11 + x12 >= 1;
r52: x4 + x19 + x10 + x3 + x1 + x2 + x16 >= 1;
r53: x14 + x12 + x7 + x5 + x17 + x8 >= 1;
r54: x17 >= 1;
r55: x4 + x3 + x5 + x20 + x9 + x6 + x8 >= 1;
r56: x6 + x5 + x7 + x15 + x2 + x10 + x16 >= 1;
r57: x8 + x1 + x6 + x5 + x4 >= 1;
r58: x5 + x17 + x15 + x16 + x12 + x1 + x11 >= 1;
r59: x6 + x3 + x7 + x10 + x12 + x8 + x4 >= 1;
r60: x20 + x18 >= 1;

bin x1, x2, x3, x4, x5, x6, x7, x8, x9, x10, x11, x12, x13, x14, x15, x16, x17, x18, x19, x20;
